data/mip_solutions/furman_sahinidis/transportation/7sp2_cplex.sol
Elapsed time: 0.0468580722809
Nodes explored: 61
Upper bound: 7.0
Lower bound: 7.0
y[0,1]=1
y[0,2]=1
y[0,3]=1
y[1,0]=1
y[1,3]=1
y[2,1]=1
y[2,2]=1
y[3,0]=1
q[0,0,1,3]=224.4
q[0,0,2,3]=967.92
q[0,0,3,4]=162.0
q[0,1,2,3]=1473.12
q[0,2,2,3]=498.96
q[0,3,2,3]=1188.0
q[1,2,3,4]=331.17
q[1,3,0,3]=1024.47
q[1,3,3,4]=1183.33
q[1,4,3,4]=422.7
q[1,4,3,5]=1154.3
q[1,5,3,5]=157.7
q[2,1,1,3]=815.6
q[2,1,1,4]=2.8
q[2,1,2,3]=-4.54747350886e-13
q[2,2,1,4]=277.2
q[2,3,1,3]=1040.0
q[2,3,1,5]=140.0
q[2,3,1,6]=668.0
q[2,4,1,4]=1320.0
q[2,5,1,5]=660.0
q[2,6,1,6]=132.0
q[3,3,0,3]=575.53
q[3,3,0,4]=1600.0
